WARNING: for repeatability, setting FPU to use double precision
============================[ Problem Statistics ]=============================
|                                                                             |
|  Number of variables:          4928                                         |
|  Number of clauses:           16384                                         |
|  Parse time:                   0.01 s                                       |
|                                                                             |
c ============================[ Search Statistics ]==============================
c | Conflicts |          ORIGINAL         |          LEARNT          | Progress |
c |           |    Vars  Clauses Literals |    Limit  Clauses Lit/Cl |          |
c ===============================================================================
c Switched to VSIDS.
c Switched to LRB.
c Switched to VSIDS.
c Switched to LRB.
c Switched to VSIDS.
c Switched to LRB.
c Switched to VSIDS.
c Switched to LRB.
c Switched to VSIDS.
c Switched to LRB.
c Switched to VSIDS.
c Switched to LRB.
c Switched to VSIDS.
c Switched to LRB.
c Switched to VSIDS.
c Switched to LRB.
c Switched to VSIDS.
c Switched to LRB.
c Switched to VSIDS.
c Switched to LRB.
c Switched to VSIDS.
c Switched to LRB.
c Switched to VSIDS.
c Switched to LRB.
c Switched to VSIDS.
c Switched to LRB.
c Switched to VSIDS.
c Switched to LRB.
c ===============================================================================
restarts                  : 5367
conflicts                 : 4099946        (1147 /sec)
decisions                 : 5299906        (0.00 % random) (1482 /sec)
propagations              : 4404448204     (1231923 /sec)
conflict literals         : 241250979      (64.21 % deleted)

conflicts w/ DIP found    : 2527118        (61.64 % of conflicts)
conflicts w/ dangerous DIP: 0              (0.00 % of conflicts)
conflicts w/ DIP-learning : 5510           (0.13 % of conflicts)
decisions on ext vars     : 1753           (0.03 % of decisions)
total ext vars            : 3140        
tried delete ext vars     : 2704        
deleted ext vars          : 2704        
max ext vars              : 833         

Memory used               : 129.00 MB
CPU time                  : 3575.26 s
DIP computation time      : 266.488 s (7.45 % of total time)
ER_sel time               : 4.76358 s
ER_add time               : 0.013916 s
ER_delC time              : 0 s
ER_delV time              : 0.375027 s
ER_sub time               : 5.97026 s
ER_stat time              : 0 s

INDETERMINATE
